c created by edge2cnf
p cnf 500 3100
-1 -2 0
-1 -3 0
-1 -4 0
-1 -5 0
-2 -3 0
-2 -4 0
-2 -5 0
-3 -4 0
-3 -5 0
-4 -5 0
1 2 3 4 5 0
-6 -7 0
-6 -8 0
-6 -9 0
-6 -10 0
-7 -8 0
-7 -9 0
-7 -10 0
-8 -9 0
-8 -10 0
-9 -10 0
6 7 8 9 10 0
-11 -12 0
-11 -13 0
-11 -14 0
-11 -15 0
-12 -13 0
-12 -14 0
-12 -15 0
-13 -14 0
-13 -15 0
-14 -15 0
11 12 13 14 15 0
-16 -17 0
-16 -18 0
-16 -19 0
-16 -20 0
-17 -18 0
-17 -19 0
-17 -20 0
-18 -19 0
-18 -20 0
-19 -20 0
16 17 18 19 20 0
-21 -22 0
-21 -23 0
-21 -24 0
-21 -25 0
-22 -23 0
-22 -24 0
-22 -25 0
-23 -24 0
-23 -25 0
-24 -25 0
21 22 23 24 25 0
-26 -27 0
-26 -28 0
-26 -29 0
-26 -30 0
-27 -28 0
-27 -29 0
-27 -30 0
-28 -29 0
-28 -30 0
-29 -30 0
26 27 28 29 30 0
-31 -32 0
-31 -33 0
-31 -34 0
-31 -35 0
-32 -33 0
-32 -34 0
-32 -35 0
-33 -34 0
-33 -35 0
-34 -35 0
31 32 33 34 35 0
-36 -37 0
-36 -38 0
-36 -39 0
-36 -40 0
-37 -38 0
-37 -39 0
-37 -40 0
-38 -39 0
-38 -40 0
-39 -40 0
36 37 38 39 40 0
-41 -42 0
-41 -43 0
-41 -44 0
-41 -45 0
-42 -43 0
-42 -44 0
-42 -45 0
-43 -44 0
-43 -45 0
-44 -45 0
41 42 43 44 45 0
-46 -47 0
-46 -48 0
-46 -49 0
-46 -50 0
-47 -48 0
-47 -49 0
-47 -50 0
-48 -49 0
-48 -50 0
-49 -50 0
46 47 48 49 50 0
-51 -52 0
-51 -53 0
-51 -54 0
-51 -55 0
-52 -53 0
-52 -54 0
-52 -55 0
-53 -54 0
-53 -55 0
-54 -55 0
51 52 53 54 55 0
-56 -57 0
-56 -58 0
-56 -59 0
-56 -60 0
-57 -58 0
-57 -59 0
-57 -60 0
-58 -59 0
-58 -60 0
-59 -60 0
56 57 58 59 60 0
-61 -62 0
-61 -63 0
-61 -64 0
-61 -65 0
-62 -63 0
-62 -64 0
-62 -65 0
-63 -64 0
-63 -65 0
-64 -65 0
61 62 63 64 65 0
-66 -67 0
-66 -68 0
-66 -69 0
-66 -70 0
-67 -68 0
-67 -69 0
-67 -70 0
-68 -69 0
-68 -70 0
-69 -70 0
66 67 68 69 70 0
-71 -72 0
-71 -73 0
-71 -74 0
-71 -75 0
-72 -73 0
-72 -74 0
-72 -75 0
-73 -74 0
-73 -75 0
-74 -75 0
71 72 73 74 75 0
-76 -77 0
-76 -78 0
-76 -79 0
-76 -80 0
-77 -78 0
-77 -79 0
-77 -80 0
-78 -79 0
-78 -80 0
-79 -80 0
76 77 78 79 80 0
-81 -82 0
-81 -83 0
-81 -84 0
-81 -85 0
-82 -83 0
-82 -84 0
-82 -85 0
-83 -84 0
-83 -85 0
-84 -85 0
81 82 83 84 85 0
-86 -87 0
-86 -88 0
-86 -89 0
-86 -90 0
-87 -88 0
-87 -89 0
-87 -90 0
-88 -89 0
-88 -90 0
-89 -90 0
86 87 88 89 90 0
-91 -92 0
-91 -93 0
-91 -94 0
-91 -95 0
-92 -93 0
-92 -94 0
-92 -95 0
-93 -94 0
-93 -95 0
-94 -95 0
91 92 93 94 95 0
-96 -97 0
-96 -98 0
-96 -99 0
-96 -100 0
-97 -98 0
-97 -99 0
-97 -100 0
-98 -99 0
-98 -100 0
-99 -100 0
96 97 98 99 100 0
-101 -102 0
-101 -103 0
-101 -104 0
-101 -105 0
-102 -103 0
-102 -104 0
-102 -105 0
-103 -104 0
-103 -105 0
-104 -105 0
101 102 103 104 105 0
-106 -107 0
-106 -108 0
-106 -109 0
-106 -110 0
-107 -108 0
-107 -109 0
-107 -110 0
-108 -109 0
-108 -110 0
-109 -110 0
106 107 108 109 110 0
-111 -112 0
-111 -113 0
-111 -114 0
-111 -115 0
-112 -113 0
-112 -114 0
-112 -115 0
-113 -114 0
-113 -115 0
-114 -115 0
111 112 113 114 115 0
-116 -117 0
-116 -118 0
-116 -119 0
-116 -120 0
-117 -118 0
-117 -119 0
-117 -120 0
-118 -119 0
-118 -120 0
-119 -120 0
116 117 118 119 120 0
-121 -122 0
-121 -123 0
-121 -124 0
-121 -125 0
-122 -123 0
-122 -124 0
-122 -125 0
-123 -124 0
-123 -125 0
-124 -125 0
121 122 123 124 125 0
-126 -127 0
-126 -128 0
-126 -129 0
-126 -130 0
-127 -128 0
-127 -129 0
-127 -130 0
-128 -129 0
-128 -130 0
-129 -130 0
126 127 128 129 130 0
-131 -132 0
-131 -133 0
-131 -134 0
-131 -135 0
-132 -133 0
-132 -134 0
-132 -135 0
-133 -134 0
-133 -135 0
-134 -135 0
131 132 133 134 135 0
-136 -137 0
-136 -138 0
-136 -139 0
-136 -140 0
-137 -138 0
-137 -139 0
-137 -140 0
-138 -139 0
-138 -140 0
-139 -140 0
136 137 138 139 140 0
-141 -142 0
-141 -143 0
-141 -144 0
-141 -145 0
-142 -143 0
-142 -144 0
-142 -145 0
-143 -144 0
-143 -145 0
-144 -145 0
141 142 143 144 145 0
-146 -147 0
-146 -148 0
-146 -149 0
-146 -150 0
-147 -148 0
-147 -149 0
-147 -150 0
-148 -149 0
-148 -150 0
-149 -150 0
146 147 148 149 150 0
-151 -152 0
-151 -153 0
-151 -154 0
-151 -155 0
-152 -153 0
-152 -154 0
-152 -155 0
-153 -154 0
-153 -155 0
-154 -155 0
151 152 153 154 155 0
-156 -157 0
-156 -158 0
-156 -159 0
-156 -160 0
-157 -158 0
-157 -159 0
-157 -160 0
-158 -159 0
-158 -160 0
-159 -160 0
156 157 158 159 160 0
-161 -162 0
-161 -163 0
-161 -164 0
-161 -165 0
-162 -163 0
-162 -164 0
-162 -165 0
-163 -164 0
-163 -165 0
-164 -165 0
161 162 163 164 165 0
-166 -167 0
-166 -168 0
-166 -169 0
-166 -170 0
-167 -168 0
-167 -169 0
-167 -170 0
-168 -169 0
-168 -170 0
-169 -170 0
166 167 168 169 170 0
-171 -172 0
-171 -173 0
-171 -174 0
-171 -175 0
-172 -173 0
-172 -174 0
-172 -175 0
-173 -174 0
-173 -175 0
-174 -175 0
171 172 173 174 175 0
-176 -177 0
-176 -178 0
-176 -179 0
-176 -180 0
-177 -178 0
-177 -179 0
-177 -180 0
-178 -179 0
-178 -180 0
-179 -180 0
176 177 178 179 180 0
-181 -182 0
-181 -183 0
-181 -184 0
-181 -185 0
-182 -183 0
-182 -184 0
-182 -185 0
-183 -184 0
-183 -185 0
-184 -185 0
181 182 183 184 185 0
-186 -187 0
-186 -188 0
-186 -189 0
-186 -190 0
-187 -188 0
-187 -189 0
-187 -190 0
-188 -189 0
-188 -190 0
-189 -190 0
186 187 188 189 190 0
-191 -192 0
-191 -193 0
-191 -194 0
-191 -195 0
-192 -193 0
-192 -194 0
-192 -195 0
-193 -194 0
-193 -195 0
-194 -195 0
191 192 193 194 195 0
-196 -197 0
-196 -198 0
-196 -199 0
-196 -200 0
-197 -198 0
-197 -199 0
-197 -200 0
-198 -199 0
-198 -200 0
-199 -200 0
196 197 198 199 200 0
-201 -202 0
-201 -203 0
-201 -204 0
-201 -205 0
-202 -203 0
-202 -204 0
-202 -205 0
-203 -204 0
-203 -205 0
-204 -205 0
201 202 203 204 205 0
-206 -207 0
-206 -208 0
-206 -209 0
-206 -210 0
-207 -208 0
-207 -209 0
-207 -210 0
-208 -209 0
-208 -210 0
-209 -210 0
206 207 208 209 210 0
-211 -212 0
-211 -213 0
-211 -214 0
-211 -215 0
-212 -213 0
-212 -214 0
-212 -215 0
-213 -214 0
-213 -215 0
-214 -215 0
211 212 213 214 215 0
-216 -217 0
-216 -218 0
-216 -219 0
-216 -220 0
-217 -218 0
-217 -219 0
-217 -220 0
-218 -219 0
-218 -220 0
-219 -220 0
216 217 218 219 220 0
-221 -222 0
-221 -223 0
-221 -224 0
-221 -225 0
-222 -223 0
-222 -224 0
-222 -225 0
-223 -224 0
-223 -225 0
-224 -225 0
221 222 223 224 225 0
-226 -227 0
-226 -228 0
-226 -229 0
-226 -230 0
-227 -228 0
-227 -229 0
-227 -230 0
-228 -229 0
-228 -230 0
-229 -230 0
226 227 228 229 230 0
-231 -232 0
-231 -233 0
-231 -234 0
-231 -235 0
-232 -233 0
-232 -234 0
-232 -235 0
-233 -234 0
-233 -235 0
-234 -235 0
231 232 233 234 235 0
-236 -237 0
-236 -238 0
-236 -239 0
-236 -240 0
-237 -238 0
-237 -239 0
-237 -240 0
-238 -239 0
-238 -240 0
-239 -240 0
236 237 238 239 240 0
-241 -242 0
-241 -243 0
-241 -244 0
-241 -245 0
-242 -243 0
-242 -244 0
-242 -245 0
-243 -244 0
-243 -245 0
-244 -245 0
241 242 243 244 245 0
-246 -247 0
-246 -248 0
-246 -249 0
-246 -250 0
-247 -248 0
-247 -249 0
-247 -250 0
-248 -249 0
-248 -250 0
-249 -250 0
246 247 248 249 250 0
-251 -252 0
-251 -253 0
-251 -254 0
-251 -255 0
-252 -253 0
-252 -254 0
-252 -255 0
-253 -254 0
-253 -255 0
-254 -255 0
251 252 253 254 255 0
-256 -257 0
-256 -258 0
-256 -259 0
-256 -260 0
-257 -258 0
-257 -259 0
-257 -260 0
-258 -259 0
-258 -260 0
-259 -260 0
256 257 258 259 260 0
-261 -262 0
-261 -263 0
-261 -264 0
-261 -265 0
-262 -263 0
-262 -264 0
-262 -265 0
-263 -264 0
-263 -265 0
-264 -265 0
261 262 263 264 265 0
-266 -267 0
-266 -268 0
-266 -269 0
-266 -270 0
-267 -268 0
-267 -269 0
-267 -270 0
-268 -269 0
-268 -270 0
-269 -270 0
266 267 268 269 270 0
-271 -272 0
-271 -273 0
-271 -274 0
-271 -275 0
-272 -273 0
-272 -274 0
-272 -275 0
-273 -274 0
-273 -275 0
-274 -275 0
271 272 273 274 275 0
-276 -277 0
-276 -278 0
-276 -279 0
-276 -280 0
-277 -278 0
-277 -279 0
-277 -280 0
-278 -279 0
-278 -280 0
-279 -280 0
276 277 278 279 280 0
-281 -282 0
-281 -283 0
-281 -284 0
-281 -285 0
-282 -283 0
-282 -284 0
-282 -285 0
-283 -284 0
-283 -285 0
-284 -285 0
281 282 283 284 285 0
-286 -287 0
-286 -288 0
-286 -289 0
-286 -290 0
-287 -288 0
-287 -289 0
-287 -290 0
-288 -289 0
-288 -290 0
-289 -290 0
286 287 288 289 290 0
-291 -292 0
-291 -293 0
-291 -294 0
-291 -295 0
-292 -293 0
-292 -294 0
-292 -295 0
-293 -294 0
-293 -295 0
-294 -295 0
291 292 293 294 295 0
-296 -297 0
-296 -298 0
-296 -299 0
-296 -300 0
-297 -298 0
-297 -299 0
-297 -300 0
-298 -299 0
-298 -300 0
-299 -300 0
296 297 298 299 300 0
-301 -302 0
-301 -303 0
-301 -304 0
-301 -305 0
-302 -303 0
-302 -304 0
-302 -305 0
-303 -304 0
-303 -305 0
-304 -305 0
301 302 303 304 305 0
-306 -307 0
-306 -308 0
-306 -309 0
-306 -310 0
-307 -308 0
-307 -309 0
-307 -310 0
-308 -309 0
-308 -310 0
-309 -310 0
306 307 308 309 310 0
-311 -312 0
-311 -313 0
-311 -314 0
-311 -315 0
-312 -313 0
-312 -314 0
-312 -315 0
-313 -314 0
-313 -315 0
-314 -315 0
311 312 313 314 315 0
-316 -317 0
-316 -318 0
-316 -319 0
-316 -320 0
-317 -318 0
-317 -319 0
-317 -320 0
-318 -319 0
-318 -320 0
-319 -320 0
316 317 318 319 320 0
-321 -322 0
-321 -323 0
-321 -324 0
-321 -325 0
-322 -323 0
-322 -324 0
-322 -325 0
-323 -324 0
-323 -325 0
-324 -325 0
321 322 323 324 325 0
-326 -327 0
-326 -328 0
-326 -329 0
-326 -330 0
-327 -328 0
-327 -329 0
-327 -330 0
-328 -329 0
-328 -330 0
-329 -330 0
326 327 328 329 330 0
-331 -332 0
-331 -333 0
-331 -334 0
-331 -335 0
-332 -333 0
-332 -334 0
-332 -335 0
-333 -334 0
-333 -335 0
-334 -335 0
331 332 333 334 335 0
-336 -337 0
-336 -338 0
-336 -339 0
-336 -340 0
-337 -338 0
-337 -339 0
-337 -340 0
-338 -339 0
-338 -340 0
-339 -340 0
336 337 338 339 340 0
-341 -342 0
-341 -343 0
-341 -344 0
-341 -345 0
-342 -343 0
-342 -344 0
-342 -345 0
-343 -344 0
-343 -345 0
-344 -345 0
341 342 343 344 345 0
-346 -347 0
-346 -348 0
-346 -349 0
-346 -350 0
-347 -348 0
-347 -349 0
-347 -350 0
-348 -349 0
-348 -350 0
-349 -350 0
346 347 348 349 350 0
-351 -352 0
-351 -353 0
-351 -354 0
-351 -355 0
-352 -353 0
-352 -354 0
-352 -355 0
-353 -354 0
-353 -355 0
-354 -355 0
351 352 353 354 355 0
-356 -357 0
-356 -358 0
-356 -359 0
-356 -360 0
-357 -358 0
-357 -359 0
-357 -360 0
-358 -359 0
-358 -360 0
-359 -360 0
356 357 358 359 360 0
-361 -362 0
-361 -363 0
-361 -364 0
-361 -365 0
-362 -363 0
-362 -364 0
-362 -365 0
-363 -364 0
-363 -365 0
-364 -365 0
361 362 363 364 365 0
-366 -367 0
-366 -368 0
-366 -369 0
-366 -370 0
-367 -368 0
-367 -369 0
-367 -370 0
-368 -369 0
-368 -370 0
-369 -370 0
366 367 368 369 370 0
-371 -372 0
-371 -373 0
-371 -374 0
-371 -375 0
-372 -373 0
-372 -374 0
-372 -375 0
-373 -374 0
-373 -375 0
-374 -375 0
371 372 373 374 375 0
-376 -377 0
-376 -378 0
-376 -379 0
-376 -380 0
-377 -378 0
-377 -379 0
-377 -380 0
-378 -379 0
-378 -380 0
-379 -380 0
376 377 378 379 380 0
-381 -382 0
-381 -383 0
-381 -384 0
-381 -385 0
-382 -383 0
-382 -384 0
-382 -385 0
-383 -384 0
-383 -385 0
-384 -385 0
381 382 383 384 385 0
-386 -387 0
-386 -388 0
-386 -389 0
-386 -390 0
-387 -388 0
-387 -389 0
-387 -390 0
-388 -389 0
-388 -390 0
-389 -390 0
386 387 388 389 390 0
-391 -392 0
-391 -393 0
-391 -394 0
-391 -395 0
-392 -393 0
-392 -394 0
-392 -395 0
-393 -394 0
-393 -395 0
-394 -395 0
391 392 393 394 395 0
-396 -397 0
-396 -398 0
-396 -399 0
-396 -400 0
-397 -398 0
-397 -399 0
-397 -400 0
-398 -399 0
-398 -400 0
-399 -400 0
396 397 398 399 400 0
-401 -402 0
-401 -403 0
-401 -404 0
-401 -405 0
-402 -403 0
-402 -404 0
-402 -405 0
-403 -404 0
-403 -405 0
-404 -405 0
401 402 403 404 405 0
-406 -407 0
-406 -408 0
-406 -409 0
-406 -410 0
-407 -408 0
-407 -409 0
-407 -410 0
-408 -409 0
-408 -410 0
-409 -410 0
406 407 408 409 410 0
-411 -412 0
-411 -413 0
-411 -414 0
-411 -415 0
-412 -413 0
-412 -414 0
-412 -415 0
-413 -414 0
-413 -415 0
-414 -415 0
411 412 413 414 415 0
-416 -417 0
-416 -418 0
-416 -419 0
-416 -420 0
-417 -418 0
-417 -419 0
-417 -420 0
-418 -419 0
-418 -420 0
-419 -420 0
416 417 418 419 420 0
-421 -422 0
-421 -423 0
-421 -424 0
-421 -425 0
-422 -423 0
-422 -424 0
-422 -425 0
-423 -424 0
-423 -425 0
-424 -425 0
421 422 423 424 425 0
-426 -427 0
-426 -428 0
-426 -429 0
-426 -430 0
-427 -428 0
-427 -429 0
-427 -430 0
-428 -429 0
-428 -430 0
-429 -430 0
426 427 428 429 430 0
-431 -432 0
-431 -433 0
-431 -434 0
-431 -435 0
-432 -433 0
-432 -434 0
-432 -435 0
-433 -434 0
-433 -435 0
-434 -435 0
431 432 433 434 435 0
-436 -437 0
-436 -438 0
-436 -439 0
-436 -440 0
-437 -438 0
-437 -439 0
-437 -440 0
-438 -439 0
-438 -440 0
-439 -440 0
436 437 438 439 440 0
-441 -442 0
-441 -443 0
-441 -444 0
-441 -445 0
-442 -443 0
-442 -444 0
-442 -445 0
-443 -444 0
-443 -445 0
-444 -445 0
441 442 443 444 445 0
-446 -447 0
-446 -448 0
-446 -449 0
-446 -450 0
-447 -448 0
-447 -449 0
-447 -450 0
-448 -449 0
-448 -450 0
-449 -450 0
446 447 448 449 450 0
-451 -452 0
-451 -453 0
-451 -454 0
-451 -455 0
-452 -453 0
-452 -454 0
-452 -455 0
-453 -454 0
-453 -455 0
-454 -455 0
451 452 453 454 455 0
-456 -457 0
-456 -458 0
-456 -459 0
-456 -460 0
-457 -458 0
-457 -459 0
-457 -460 0
-458 -459 0
-458 -460 0
-459 -460 0
456 457 458 459 460 0
-461 -462 0
-461 -463 0
-461 -464 0
-461 -465 0
-462 -463 0
-462 -464 0
-462 -465 0
-463 -464 0
-463 -465 0
-464 -465 0
461 462 463 464 465 0
-466 -467 0
-466 -468 0
-466 -469 0
-466 -470 0
-467 -468 0
-467 -469 0
-467 -470 0
-468 -469 0
-468 -470 0
-469 -470 0
466 467 468 469 470 0
-471 -472 0
-471 -473 0
-471 -474 0
-471 -475 0
-472 -473 0
-472 -474 0
-472 -475 0
-473 -474 0
-473 -475 0
-474 -475 0
471 472 473 474 475 0
-476 -477 0
-476 -478 0
-476 -479 0
-476 -480 0
-477 -478 0
-477 -479 0
-477 -480 0
-478 -479 0
-478 -480 0
-479 -480 0
476 477 478 479 480 0
-481 -482 0
-481 -483 0
-481 -484 0
-481 -485 0
-482 -483 0
-482 -484 0
-482 -485 0
-483 -484 0
-483 -485 0
-484 -485 0
481 482 483 484 485 0
-486 -487 0
-486 -488 0
-486 -489 0
-486 -490 0
-487 -488 0
-487 -489 0
-487 -490 0
-488 -489 0
-488 -490 0
-489 -490 0
486 487 488 489 490 0
-491 -492 0
-491 -493 0
-491 -494 0
-491 -495 0
-492 -493 0
-492 -494 0
-492 -495 0
-493 -494 0
-493 -495 0
-494 -495 0
491 492 493 494 495 0
-496 -497 0
-496 -498 0
-496 -499 0
-496 -500 0
-497 -498 0
-497 -499 0
-497 -500 0
-498 -499 0
-498 -500 0
-499 -500 0
496 497 498 499 500 0
-1 -21 0
-2 -22 0
-3 -23 0
-4 -24 0
-5 -25 0
-11 -16 0
-12 -17 0
-13 -18 0
-14 -19 0
-15 -20 0
-11 -21 0
-12 -22 0
-13 -23 0
-14 -24 0
-15 -25 0
-31 -46 0
-32 -47 0
-33 -48 0
-34 -49 0
-35 -50 0
-56 -66 0
-57 -67 0
-58 -68 0
-59 -69 0
-60 -70 0
-56 -71 0
-57 -72 0
-58 -73 0
-59 -74 0
-60 -75 0
-76 -81 0
-77 -82 0
-78 -83 0
-79 -84 0
-80 -85 0
-86 -91 0
-87 -92 0
-88 -93 0
-89 -94 0
-90 -95 0
-96 -106 0
-97 -107 0
-98 -108 0
-99 -109 0
-100 -110 0
-101 -121 0
-102 -122 0
-103 -123 0
-104 -124 0
-105 -125 0
-106 -116 0
-107 -117 0
-108 -118 0
-109 -119 0
-110 -120 0
-111 -121 0
-112 -122 0
-113 -123 0
-114 -124 0
-115 -125 0
-116 -121 0
-117 -122 0
-118 -123 0
-119 -124 0
-120 -125 0
-131 -146 0
-132 -147 0
-133 -148 0
-134 -149 0
-135 -150 0
-136 -141 0
-137 -142 0
-138 -143 0
-139 -144 0
-140 -145 0
-136 -156 0
-137 -157 0
-138 -158 0
-139 -159 0
-140 -160 0
-141 -161 0
-142 -162 0
-143 -163 0
-144 -164 0
-145 -165 0
-151 -171 0
-152 -172 0
-153 -173 0
-154 -174 0
-155 -175 0
-166 -181 0
-167 -182 0
-168 -183 0
-169 -184 0
-170 -185 0
-176 -181 0
-177 -182 0
-178 -183 0
-179 -184 0
-180 -185 0
-181 -196 0
-182 -197 0
-183 -198 0
-184 -199 0
-185 -200 0
-231 -236 0
-232 -237 0
-233 -238 0
-234 -239 0
-235 -240 0
-251 -261 0
-252 -262 0
-253 -263 0
-254 -264 0
-255 -265 0
-256 -261 0
-257 -262 0
-258 -263 0
-259 -264 0
-260 -265 0
-276 -296 0
-277 -297 0
-278 -298 0
-279 -299 0
-280 -300 0
-306 -326 0
-307 -327 0
-308 -328 0
-309 -329 0
-310 -330 0
-311 -316 0
-312 -317 0
-313 -318 0
-314 -319 0
-315 -320 0
-356 -371 0
-357 -372 0
-358 -373 0
-359 -374 0
-360 -375 0
-361 -366 0
-362 -367 0
-363 -368 0
-364 -369 0
-365 -370 0
-366 -371 0
-367 -372 0
-368 -373 0
-369 -374 0
-370 -375 0
-371 -376 0
-372 -377 0
-373 -378 0
-374 -379 0
-375 -380 0
-386 -391 0
-387 -392 0
-388 -393 0
-389 -394 0
-390 -395 0
-396 -401 0
-397 -402 0
-398 -403 0
-399 -404 0
-400 -405 0
-411 -416 0
-412 -417 0
-413 -418 0
-414 -419 0
-415 -420 0
-411 -431 0
-412 -432 0
-413 -433 0
-414 -434 0
-415 -435 0
-421 -426 0
-422 -427 0
-423 -428 0
-424 -429 0
-425 -430 0
-431 -436 0
-432 -437 0
-433 -438 0
-434 -439 0
-435 -440 0
-431 -446 0
-432 -447 0
-433 -448 0
-434 -449 0
-435 -450 0
-441 -461 0
-442 -462 0
-443 -463 0
-444 -464 0
-445 -465 0
-446 -466 0
-447 -467 0
-448 -468 0
-449 -469 0
-450 -470 0
-451 -456 0
-452 -457 0
-453 -458 0
-454 -459 0
-455 -460 0
-476 -496 0
-477 -497 0
-478 -498 0
-479 -499 0
-480 -500 0
-481 -486 0
-482 -487 0
-483 -488 0
-484 -489 0
-485 -490 0
-1 -491 0
-2 -492 0
-3 -493 0
-4 -494 0
-5 -495 0
-1 -101 0
-2 -102 0
-3 -103 0
-4 -104 0
-5 -105 0
-1 -191 0
-2 -192 0
-3 -193 0
-4 -194 0
-5 -195 0
-1 -246 0
-2 -247 0
-3 -248 0
-4 -249 0
-5 -250 0
-1 -351 0
-2 -352 0
-3 -353 0
-4 -354 0
-5 -355 0
-1 -416 0
-2 -417 0
-3 -418 0
-4 -419 0
-5 -420 0
-1 -436 0
-2 -437 0
-3 -438 0
-4 -439 0
-5 -440 0
-6 -106 0
-7 -107 0
-8 -108 0
-9 -109 0
-10 -110 0
-6 -176 0
-7 -177 0
-8 -178 0
-9 -179 0
-10 -180 0
-6 -201 0
-7 -202 0
-8 -203 0
-9 -204 0
-10 -205 0
-6 -286 0
-7 -287 0
-8 -288 0
-9 -289 0
-10 -290 0
-6 -306 0
-7 -307 0
-8 -308 0
-9 -309 0
-10 -310 0
-6 -321 0
-7 -322 0
-8 -323 0
-9 -324 0
-10 -325 0
-6 -341 0
-7 -342 0
-8 -343 0
-9 -344 0
-10 -345 0
-6 -346 0
-7 -347 0
-8 -348 0
-9 -349 0
-10 -350 0
-6 -476 0
-7 -477 0
-8 -478 0
-9 -479 0
-10 -480 0
-11 -131 0
-12 -132 0
-13 -133 0
-14 -134 0
-15 -135 0
-11 -146 0
-12 -147 0
-13 -148 0
-14 -149 0
-15 -150 0
-11 -161 0
-12 -162 0
-13 -163 0
-14 -164 0
-15 -165 0
-11 -256 0
-12 -257 0
-13 -258 0
-14 -259 0
-15 -260 0
-11 -286 0
-12 -287 0
-13 -288 0
-14 -289 0
-15 -290 0
-11 -336 0
-12 -337 0
-13 -338 0
-14 -339 0
-15 -340 0
-11 -351 0
-12 -352 0
-13 -353 0
-14 -354 0
-15 -355 0
-11 -441 0
-12 -442 0
-13 -443 0
-14 -444 0
-15 -445 0
-16 -111 0
-17 -112 0
-18 -113 0
-19 -114 0
-20 -115 0
-16 -181 0
-17 -182 0
-18 -183 0
-19 -184 0
-20 -185 0
-16 -221 0
-17 -222 0
-18 -223 0
-19 -224 0
-20 -225 0
-16 -406 0
-17 -407 0
-18 -408 0
-19 -409 0
-20 -410 0
-16 -431 0
-17 -432 0
-18 -433 0
-19 -434 0
-20 -435 0
-16 -471 0
-17 -472 0
-18 -473 0
-19 -474 0
-20 -475 0
-21 -86 0
-22 -87 0
-23 -88 0
-24 -89 0
-25 -90 0
-21 -101 0
-22 -102 0
-23 -103 0
-24 -104 0
-25 -105 0
-21 -126 0
-22 -127 0
-23 -128 0
-24 -129 0
-25 -130 0
-21 -141 0
-22 -142 0
-23 -143 0
-24 -144 0
-25 -145 0
-21 -241 0
-22 -242 0
-23 -243 0
-24 -244 0
-25 -245 0
-21 -266 0
-22 -267 0
-23 -268 0
-24 -269 0
-25 -270 0
-21 -271 0
-22 -272 0
-23 -273 0
-24 -274 0
-25 -275 0
-21 -281 0
-22 -282 0
-23 -283 0
-24 -284 0
-25 -285 0
-21 -396 0
-22 -397 0
-23 -398 0
-24 -399 0
-25 -400 0
-21 -421 0
-22 -422 0
-23 -423 0
-24 -424 0
-25 -425 0
-26 -56 0
-27 -57 0
-28 -58 0
-29 -59 0
-30 -60 0
-26 -66 0
-27 -67 0
-28 -68 0
-29 -69 0
-30 -70 0
-26 -86 0
-27 -87 0
-28 -88 0
-29 -89 0
-30 -90 0
-26 -96 0
-27 -97 0
-28 -98 0
-29 -99 0
-30 -100 0
-26 -241 0
-27 -242 0
-28 -243 0
-29 -244 0
-30 -245 0
-26 -361 0
-27 -362 0
-28 -363 0
-29 -364 0
-30 -365 0
-26 -411 0
-27 -412 0
-28 -413 0
-29 -414 0
-30 -415 0
-26 -431 0
-27 -432 0
-28 -433 0
-29 -434 0
-30 -435 0
-31 -86 0
-32 -87 0
-33 -88 0
-34 -89 0
-35 -90 0
-31 -296 0
-32 -297 0
-33 -298 0
-34 -299 0
-35 -300 0
-31 -331 0
-32 -332 0
-33 -333 0
-34 -334 0
-35 -335 0
-31 -376 0
-32 -377 0
-33 -378 0
-34 -379 0
-35 -380 0
-31 -396 0
-32 -397 0
-33 -398 0
-34 -399 0
-35 -400 0
-36 -81 0
-37 -82 0
-38 -83 0
-39 -84 0
-40 -85 0
-36 -126 0
-37 -127 0
-38 -128 0
-39 -129 0
-40 -130 0
-36 -136 0
-37 -137 0
-38 -138 0
-39 -139 0
-40 -140 0
-36 -181 0
-37 -182 0
-38 -183 0
-39 -184 0
-40 -185 0
-36 -186 0
-37 -187 0
-38 -188 0
-39 -189 0
-40 -190 0
-36 -246 0
-37 -247 0
-38 -248 0
-39 -249 0
-40 -250 0
-36 -311 0
-37 -312 0
-38 -313 0
-39 -314 0
-40 -315 0
-36 -326 0
-37 -327 0
-38 -328 0
-39 -329 0
-40 -330 0
-36 -381 0
-37 -382 0
-38 -383 0
-39 -384 0
-40 -385 0
-36 -396 0
-37 -397 0
-38 -398 0
-39 -399 0
-40 -400 0
-36 -401 0
-37 -402 0
-38 -403 0
-39 -404 0
-40 -405 0
-36 -431 0
-37 -432 0
-38 -433 0
-39 -434 0
-40 -435 0
-36 -441 0
-37 -442 0
-38 -443 0
-39 -444 0
-40 -445 0
-36 -481 0
-37 -482 0
-38 -483 0
-39 -484 0
-40 -485 0
-36 -486 0
-37 -487 0
-38 -488 0
-39 -489 0
-40 -490 0
-41 -91 0
-42 -92 0
-43 -93 0
-44 -94 0
-45 -95 0
-41 -341 0
-42 -342 0
-43 -343 0
-44 -344 0
-45 -345 0
-41 -371 0
-42 -372 0
-43 -373 0
-44 -374 0
-45 -375 0
-41 -426 0
-42 -427 0
-43 -428 0
-44 -429 0
-45 -430 0
-41 -436 0
-42 -437 0
-43 -438 0
-44 -439 0
-45 -440 0
-41 -456 0
-42 -457 0
-43 -458 0
-44 -459 0
-45 -460 0
-46 -241 0
-47 -242 0
-48 -243 0
-49 -244 0
-50 -245 0
-46 -406 0
-47 -407 0
-48 -408 0
-49 -409 0
-50 -410 0
-46 -436 0
-47 -437 0
-48 -438 0
-49 -439 0
-50 -440 0
-51 -106 0
-52 -107 0
-53 -108 0
-54 -109 0
-55 -110 0
-51 -176 0
-52 -177 0
-53 -178 0
-54 -179 0
-55 -180 0
-51 -211 0
-52 -212 0
-53 -213 0
-54 -214 0
-55 -215 0
-51 -446 0
-52 -447 0
-53 -448 0
-54 -449 0
-55 -450 0
-56 -81 0
-57 -82 0
-58 -83 0
-59 -84 0
-60 -85 0
-56 -96 0
-57 -97 0
-58 -98 0
-59 -99 0
-60 -100 0
-56 -166 0
-57 -167 0
-58 -168 0
-59 -169 0
-60 -170 0
-56 -241 0
-57 -242 0
-58 -243 0
-59 -244 0
-60 -245 0
-56 -281 0
-57 -282 0
-58 -283 0
-59 -284 0
-60 -285 0
-56 -301 0
-57 -302 0
-58 -303 0
-59 -304 0
-60 -305 0
-56 -361 0
-57 -362 0
-58 -363 0
-59 -364 0
-60 -365 0
-56 -456 0
-57 -457 0
-58 -458 0
-59 -459 0
-60 -460 0
-56 -461 0
-57 -462 0
-58 -463 0
-59 -464 0
-60 -465 0
-61 -141 0
-62 -142 0
-63 -143 0
-64 -144 0
-65 -145 0
-61 -201 0
-62 -202 0
-63 -203 0
-64 -204 0
-65 -205 0
-61 -311 0
-62 -312 0
-63 -313 0
-64 -314 0
-65 -315 0
-61 -406 0
-62 -407 0
-63 -408 0
-64 -409 0
-65 -410 0
-61 -416 0
-62 -417 0
-63 -418 0
-64 -419 0
-65 -420 0
-61 -451 0
-62 -452 0
-63 -453 0
-64 -454 0
-65 -455 0
-66 -136 0
-67 -137 0
-68 -138 0
-69 -139 0
-70 -140 0
-66 -276 0
-67 -277 0
-68 -278 0
-69 -279 0
-70 -280 0
-66 -281 0
-67 -282 0
-68 -283 0
-69 -284 0
-70 -285 0
-66 -326 0
-67 -327 0
-68 -328 0
-69 -329 0
-70 -330 0
-66 -371 0
-67 -372 0
-68 -373 0
-69 -374 0
-70 -375 0
-66 -406 0
-67 -407 0
-68 -408 0
-69 -409 0
-70 -410 0
-66 -476 0
-67 -477 0
-68 -478 0
-69 -479 0
-70 -480 0
-71 -101 0
-72 -102 0
-73 -103 0
-74 -104 0
-75 -105 0
-71 -121 0
-72 -122 0
-73 -123 0
-74 -124 0
-75 -125 0
-71 -156 0
-72 -157 0
-73 -158 0
-74 -159 0
-75 -160 0
-71 -401 0
-72 -402 0
-73 -403 0
-74 -404 0
-75 -405 0
-76 -106 0
-77 -107 0
-78 -108 0
-79 -109 0
-80 -110 0
-76 -241 0
-77 -242 0
-78 -243 0
-79 -244 0
-80 -245 0
-76 -261 0
-77 -262 0
-78 -263 0
-79 -264 0
-80 -265 0
-76 -271 0
-77 -272 0
-78 -273 0
-79 -274 0
-80 -275 0
-76 -346 0
-77 -347 0
-78 -348 0
-79 -349 0
-80 -350 0
-76 -381 0
-77 -382 0
-78 -383 0
-79 -384 0
-80 -385 0
-81 -171 0
-82 -172 0
-83 -173 0
-84 -174 0
-85 -175 0
-81 -206 0
-82 -207 0
-83 -208 0
-84 -209 0
-85 -210 0
-81 -241 0
-82 -242 0
-83 -243 0
-84 -244 0
-85 -245 0
-81 -281 0
-82 -282 0
-83 -283 0
-84 -284 0
-85 -285 0
-81 -301 0
-82 -302 0
-83 -303 0
-84 -304 0
-85 -305 0
-81 -306 0
-82 -307 0
-83 -308 0
-84 -309 0
-85 -310 0
-81 -381 0
-82 -382 0
-83 -383 0
-84 -384 0
-85 -385 0
-81 -391 0
-82 -392 0
-83 -393 0
-84 -394 0
-85 -395 0
-86 -246 0
-87 -247 0
-88 -248 0
-89 -249 0
-90 -250 0
-86 -326 0
-87 -327 0
-88 -328 0
-89 -329 0
-90 -330 0
-86 -381 0
-87 -382 0
-88 -383 0
-89 -384 0
-90 -385 0
-86 -446 0
-87 -447 0
-88 -448 0
-89 -449 0
-90 -450 0
-91 -121 0
-92 -122 0
-93 -123 0
-94 -124 0
-95 -125 0
-91 -171 0
-92 -172 0
-93 -173 0
-94 -174 0
-95 -175 0
-91 -246 0
-92 -247 0
-93 -248 0
-94 -249 0
-95 -250 0
-91 -366 0
-92 -367 0
-93 -368 0
-94 -369 0
-95 -370 0
-91 -446 0
-92 -447 0
-93 -448 0
-94 -449 0
-95 -450 0
-91 -456 0
-92 -457 0
-93 -458 0
-94 -459 0
-95 -460 0
-96 -226 0
-97 -227 0
-98 -228 0
-99 -229 0
-100 -230 0
-96 -356 0
-97 -357 0
-98 -358 0
-99 -359 0
-100 -360 0
-96 -391 0
-97 -392 0
-98 -393 0
-99 -394 0
-100 -395 0
-101 -126 0
-102 -127 0
-103 -128 0
-104 -129 0
-105 -130 0
-101 -226 0
-102 -227 0
-103 -228 0
-104 -229 0
-105 -230 0
-101 -266 0
-102 -267 0
-103 -268 0
-104 -269 0
-105 -270 0
-101 -336 0
-102 -337 0
-103 -338 0
-104 -339 0
-105 -340 0
-101 -341 0
-102 -342 0
-103 -343 0
-104 -344 0
-105 -345 0
-101 -416 0
-102 -417 0
-103 -418 0
-104 -419 0
-105 -420 0
-101 -426 0
-102 -427 0
-103 -428 0
-104 -429 0
-105 -430 0
-106 -226 0
-107 -227 0
-108 -228 0
-109 -229 0
-110 -230 0
-106 -231 0
-107 -232 0
-108 -233 0
-109 -234 0
-110 -235 0
-106 -236 0
-107 -237 0
-108 -238 0
-109 -239 0
-110 -240 0
-106 -286 0
-107 -287 0
-108 -288 0
-109 -289 0
-110 -290 0
-106 -311 0
-107 -312 0
-108 -313 0
-109 -314 0
-110 -315 0
-106 -346 0
-107 -347 0
-108 -348 0
-109 -349 0
-110 -350 0
-106 -351 0
-107 -352 0
-108 -353 0
-109 -354 0
-110 -355 0
-106 -386 0
-107 -387 0
-108 -388 0
-109 -389 0
-110 -390 0
-106 -411 0
-107 -412 0
-108 -413 0
-109 -414 0
-110 -415 0
-106 -436 0
-107 -437 0
-108 -438 0
-109 -439 0
-110 -440 0
-106 -461 0
-107 -462 0
-108 -463 0
-109 -464 0
-110 -465 0
-111 -171 0
-112 -172 0
-113 -173 0
-114 -174 0
-115 -175 0
-111 -181 0
-112 -182 0
-113 -183 0
-114 -184 0
-115 -185 0
-111 -281 0
-112 -282 0
-113 -283 0
-114 -284 0
-115 -285 0
-111 -391 0
-112 -392 0
-113 -393 0
-114 -394 0
-115 -395 0
-111 -426 0
-112 -427 0
-113 -428 0
-114 -429 0
-115 -430 0
-111 -471 0
-112 -472 0
-113 -473 0
-114 -474 0
-115 -475 0
-111 -476 0
-112 -477 0
-113 -478 0
-114 -479 0
-115 -480 0
-116 -266 0
-117 -267 0
-118 -268 0
-119 -269 0
-120 -270 0
-116 -351 0
-117 -352 0
-118 -353 0
-119 -354 0
-120 -355 0
-116 -421 0
-117 -422 0
-118 -423 0
-119 -424 0
-120 -425 0
-121 -226 0
-122 -227 0
-123 -228 0
-124 -229 0
-125 -230 0
-121 -336 0
-122 -337 0
-123 -338 0
-124 -339 0
-125 -340 0
-121 -346 0
-122 -347 0
-123 -348 0
-124 -349 0
-125 -350 0
-121 -351 0
-122 -352 0
-123 -353 0
-124 -354 0
-125 -355 0
-121 -421 0
-122 -422 0
-123 -423 0
-124 -424 0
-125 -425 0
-126 -196 0
-127 -197 0
-128 -198 0
-129 -199 0
-130 -200 0
-126 -221 0
-127 -222 0
-128 -223 0
-129 -224 0
-130 -225 0
-126 -226 0
-127 -227 0
-128 -228 0
-129 -229 0
-130 -230 0
-126 -251 0
-127 -252 0
-128 -253 0
-129 -254 0
-130 -255 0
-126 -256 0
-127 -257 0
-128 -258 0
-129 -259 0
-130 -260 0
-126 -266 0
-127 -267 0
-128 -268 0
-129 -269 0
-130 -270 0
-126 -426 0
-127 -427 0
-128 -428 0
-129 -429 0
-130 -430 0
-126 -431 0
-127 -432 0
-128 -433 0
-129 -434 0
-130 -435 0
-126 -466 0
-127 -467 0
-128 -468 0
-129 -469 0
-130 -470 0
-131 -171 0
-132 -172 0
-133 -173 0
-134 -174 0
-135 -175 0
-131 -176 0
-132 -177 0
-133 -178 0
-134 -179 0
-135 -180 0
-131 -251 0
-132 -252 0
-133 -253 0
-134 -254 0
-135 -255 0
-131 -361 0
-132 -362 0
-133 -363 0
-134 -364 0
-135 -365 0
-131 -396 0
-132 -397 0
-133 -398 0
-134 -399 0
-135 -400 0
-131 -441 0
-132 -442 0
-133 -443 0
-134 -444 0
-135 -445 0
-136 -246 0
-137 -247 0
-138 -248 0
-139 -249 0
-140 -250 0
-136 -356 0
-137 -357 0
-138 -358 0
-139 -359 0
-140 -360 0
-136 -366 0
-137 -367 0
-138 -368 0
-139 -369 0
-140 -370 0
-136 -371 0
-137 -372 0
-138 -373 0
-139 -374 0
-140 -375 0
-136 -401 0
-137 -402 0
-138 -403 0
-139 -404 0
-140 -405 0
-136 -471 0
-137 -472 0
-138 -473 0
-139 -474 0
-140 -475 0
-136 -491 0
-137 -492 0
-138 -493 0
-139 -494 0
-140 -495 0
-141 -216 0
-142 -217 0
-143 -218 0
-144 -219 0
-145 -220 0
-141 -331 0
-142 -332 0
-143 -333 0
-144 -334 0
-145 -335 0
-141 -376 0
-142 -377 0
-143 -378 0
-144 -379 0
-145 -380 0
-141 -386 0
-142 -387 0
-143 -388 0
-144 -389 0
-145 -390 0
-146 -201 0
-147 -202 0
-148 -203 0
-149 -204 0
-150 -205 0
-146 -256 0
-147 -257 0
-148 -258 0
-149 -259 0
-150 -260 0
-146 -291 0
-147 -292 0
-148 -293 0
-149 -294 0
-150 -295 0
-146 -296 0
-147 -297 0
-148 -298 0
-149 -299 0
-150 -300 0
-146 -356 0
-147 -357 0
-148 -358 0
-149 -359 0
-150 -360 0
-146 -361 0
-147 -362 0
-148 -363 0
-149 -364 0
-150 -365 0
-151 -246 0
-152 -247 0
-153 -248 0
-154 -249 0
-155 -250 0
-151 -316 0
-152 -317 0
-153 -318 0
-154 -319 0
-155 -320 0
-151 -326 0
-152 -327 0
-153 -328 0
-154 -329 0
-155 -330 0
-151 -356 0
-152 -357 0
-153 -358 0
-154 -359 0
-155 -360 0
-151 -421 0
-152 -422 0
-153 -423 0
-154 -424 0
-155 -425 0
-151 -496 0
-152 -497 0
-153 -498 0
-154 -499 0
-155 -500 0
-156 -196 0
-157 -197 0
-158 -198 0
-159 -199 0
-160 -200 0
-156 -251 0
-157 -252 0
-158 -253 0
-159 -254 0
-160 -255 0
-156 -361 0
-157 -362 0
-158 -363 0
-159 -364 0
-160 -365 0
-156 -401 0
-157 -402 0
-158 -403 0
-159 -404 0
-160 -405 0
-156 -406 0
-157 -407 0
-158 -408 0
-159 -409 0
-160 -410 0
-156 -451 0
-157 -452 0
-158 -453 0
-159 -454 0
-160 -455 0
-156 -466 0
-157 -467 0
-158 -468 0
-159 -469 0
-160 -470 0
-161 -311 0
-162 -312 0
-163 -313 0
-164 -314 0
-165 -315 0
-161 -361 0
-162 -362 0
-163 -363 0
-164 -364 0
-165 -365 0
-166 -281 0
-167 -282 0
-168 -283 0
-169 -284 0
-170 -285 0
-166 -341 0
-167 -342 0
-168 -343 0
-169 -344 0
-170 -345 0
-166 -466 0
-167 -467 0
-168 -468 0
-169 -469 0
-170 -470 0
-171 -276 0
-172 -277 0
-173 -278 0
-174 -279 0
-175 -280 0
-171 -361 0
-172 -362 0
-173 -363 0
-174 -364 0
-175 -365 0
-171 -446 0
-172 -447 0
-173 -448 0
-174 -449 0
-175 -450 0
-171 -471 0
-172 -472 0
-173 -473 0
-174 -474 0
-175 -475 0
-176 -241 0
-177 -242 0
-178 -243 0
-179 -244 0
-180 -245 0
-176 -261 0
-177 -262 0
-178 -263 0
-179 -264 0
-180 -265 0
-176 -456 0
-177 -457 0
-178 -458 0
-179 -459 0
-180 -460 0
-176 -476 0
-177 -477 0
-178 -478 0
-179 -479 0
-180 -480 0
-181 -206 0
-182 -207 0
-183 -208 0
-184 -209 0
-185 -210 0
-181 -256 0
-182 -257 0
-183 -258 0
-184 -259 0
-185 -260 0
-181 -331 0
-182 -332 0
-183 -333 0
-184 -334 0
-185 -335 0
-181 -371 0
-182 -372 0
-183 -373 0
-184 -374 0
-185 -375 0
-181 -421 0
-182 -422 0
-183 -423 0
-184 -424 0
-185 -425 0
-186 -211 0
-187 -212 0
-188 -213 0
-189 -214 0
-190 -215 0
-186 -266 0
-187 -267 0
-188 -268 0
-189 -269 0
-190 -270 0
-186 -356 0
-187 -357 0
-188 -358 0
-189 -359 0
-190 -360 0
-186 -361 0
-187 -362 0
-188 -363 0
-189 -364 0
-190 -365 0
-186 -446 0
-187 -447 0
-188 -448 0
-189 -449 0
-190 -450 0
-186 -466 0
-187 -467 0
-188 -468 0
-189 -469 0
-190 -470 0
-186 -476 0
-187 -477 0
-188 -478 0
-189 -479 0
-190 -480 0
-191 -246 0
-192 -247 0
-193 -248 0
-194 -249 0
-195 -250 0
-191 -256 0
-192 -257 0
-193 -258 0
-194 -259 0
-195 -260 0
-191 -346 0
-192 -347 0
-193 -348 0
-194 -349 0
-195 -350 0
-196 -266 0
-197 -267 0
-198 -268 0
-199 -269 0
-200 -270 0
-196 -311 0
-197 -312 0
-198 -313 0
-199 -314 0
-200 -315 0
-196 -376 0
-197 -377 0
-198 -378 0
-199 -379 0
-200 -380 0
-196 -451 0
-197 -452 0
-198 -453 0
-199 -454 0
-200 -455 0
-201 -451 0
-202 -452 0
-203 -453 0
-204 -454 0
-205 -455 0
-206 -271 0
-207 -272 0
-208 -273 0
-209 -274 0
-210 -275 0
-206 -306 0
-207 -307 0
-208 -308 0
-209 -309 0
-210 -310 0
-206 -336 0
-207 -337 0
-208 -338 0
-209 -339 0
-210 -340 0
-211 -336 0
-212 -337 0
-213 -338 0
-214 -339 0
-215 -340 0
-211 -351 0
-212 -352 0
-213 -353 0
-214 -354 0
-215 -355 0
-211 -381 0
-212 -382 0
-213 -383 0
-214 -384 0
-215 -385 0
-211 -396 0
-212 -397 0
-213 -398 0
-214 -399 0
-215 -400 0
-211 -406 0
-212 -407 0
-213 -408 0
-214 -409 0
-215 -410 0
-211 -476 0
-212 -477 0
-213 -478 0
-214 -479 0
-215 -480 0
-216 -291 0
-217 -292 0
-218 -293 0
-219 -294 0
-220 -295 0
-216 -311 0
-217 -312 0
-218 -313 0
-219 -314 0
-220 -315 0
-216 -496 0
-217 -497 0
-218 -498 0
-219 -499 0
-220 -500 0
-221 -316 0
-222 -317 0
-223 -318 0
-224 -319 0
-225 -320 0
-226 -251 0
-227 -252 0
-228 -253 0
-229 -254 0
-230 -255 0
-226 -256 0
-227 -257 0
-228 -258 0
-229 -259 0
-230 -260 0
-226 -281 0
-227 -282 0
-228 -283 0
-229 -284 0
-230 -285 0
-226 -321 0
-227 -322 0
-228 -323 0
-229 -324 0
-230 -325 0
-226 -411 0
-227 -412 0
-228 -413 0
-229 -414 0
-230 -415 0
-231 -341 0
-232 -342 0
-233 -343 0
-234 -344 0
-235 -345 0
-231 -421 0
-232 -422 0
-233 -423 0
-234 -424 0
-235 -425 0
-236 -281 0
-237 -282 0
-238 -283 0
-239 -284 0
-240 -285 0
-236 -346 0
-237 -347 0
-238 -348 0
-239 -349 0
-240 -350 0
-236 -461 0
-237 -462 0
-238 -463 0
-239 -464 0
-240 -465 0
-241 -286 0
-242 -287 0
-243 -288 0
-244 -289 0
-245 -290 0
-241 -321 0
-242 -322 0
-243 -323 0
-244 -324 0
-245 -325 0
-241 -351 0
-242 -352 0
-243 -353 0
-244 -354 0
-245 -355 0
-241 -371 0
-242 -372 0
-243 -373 0
-244 -374 0
-245 -375 0
-241 -421 0
-242 -422 0
-243 -423 0
-244 -424 0
-245 -425 0
-246 -276 0
-247 -277 0
-248 -278 0
-249 -279 0
-250 -280 0
-246 -351 0
-247 -352 0
-248 -353 0
-249 -354 0
-250 -355 0
-246 -391 0
-247 -392 0
-248 -393 0
-249 -394 0
-250 -395 0
-246 -451 0
-247 -452 0
-248 -453 0
-249 -454 0
-250 -455 0
-251 -496 0
-252 -497 0
-253 -498 0
-254 -499 0
-255 -500 0
-256 -356 0
-257 -357 0
-258 -358 0
-259 -359 0
-260 -360 0
-256 -391 0
-257 -392 0
-258 -393 0
-259 -394 0
-260 -395 0
-256 -456 0
-257 -457 0
-258 -458 0
-259 -459 0
-260 -460 0
-261 -326 0
-262 -327 0
-263 -328 0
-264 -329 0
-265 -330 0
-261 -441 0
-262 -442 0
-263 -443 0
-264 -444 0
-265 -445 0
-266 -371 0
-267 -372 0
-268 -373 0
-269 -374 0
-270 -375 0
-266 -391 0
-267 -392 0
-268 -393 0
-269 -394 0
-270 -395 0
-266 -401 0
-267 -402 0
-268 -403 0
-269 -404 0
-270 -405 0
-266 -411 0
-267 -412 0
-268 -413 0
-269 -414 0
-270 -415 0
-266 -481 0
-267 -482 0
-268 -483 0
-269 -484 0
-270 -485 0
-266 -491 0
-267 -492 0
-268 -493 0
-269 -494 0
-270 -495 0
-271 -361 0
-272 -362 0
-273 -363 0
-274 -364 0
-275 -365 0
-276 -331 0
-277 -332 0
-278 -333 0
-279 -334 0
-280 -335 0
-276 -476 0
-277 -477 0
-278 -478 0
-279 -479 0
-280 -480 0
-281 -346 0
-282 -347 0
-283 -348 0
-284 -349 0
-285 -350 0
-281 -351 0
-282 -352 0
-283 -353 0
-284 -354 0
-285 -355 0
-281 -361 0
-282 -362 0
-283 -363 0
-284 -364 0
-285 -365 0
-281 -446 0
-282 -447 0
-283 -448 0
-284 -449 0
-285 -450 0
-286 -321 0
-287 -322 0
-288 -323 0
-289 -324 0
-290 -325 0
-286 -426 0
-287 -427 0
-288 -428 0
-289 -429 0
-290 -430 0
-286 -431 0
-287 -432 0
-288 -433 0
-289 -434 0
-290 -435 0
-286 -496 0
-287 -497 0
-288 -498 0
-289 -499 0
-290 -500 0
-291 -316 0
-292 -317 0
-293 -318 0
-294 -319 0
-295 -320 0
-291 -331 0
-292 -332 0
-293 -333 0
-294 -334 0
-295 -335 0
-291 -436 0
-292 -437 0
-293 -438 0
-294 -439 0
-295 -440 0
-291 -496 0
-292 -497 0
-293 -498 0
-294 -499 0
-295 -500 0
-296 -456 0
-297 -457 0
-298 -458 0
-299 -459 0
-300 -460 0
-301 -341 0
-302 -342 0
-303 -343 0
-304 -344 0
-305 -345 0
-301 -426 0
-302 -427 0
-303 -428 0
-304 -429 0
-305 -430 0
-301 -471 0
-302 -472 0
-303 -473 0
-304 -474 0
-305 -475 0
-301 -486 0
-302 -487 0
-303 -488 0
-304 -489 0
-305 -490 0
-306 -451 0
-307 -452 0
-308 -453 0
-309 -454 0
-310 -455 0
-311 -341 0
-312 -342 0
-313 -343 0
-314 -344 0
-315 -345 0
-311 -401 0
-312 -402 0
-313 -403 0
-314 -404 0
-315 -405 0
-311 -461 0
-312 -462 0
-313 -463 0
-314 -464 0
-315 -465 0
-316 -371 0
-317 -372 0
-318 -373 0
-319 -374 0
-320 -375 0
-316 -386 0
-317 -387 0
-318 -388 0
-319 -389 0
-320 -390 0
-321 -431 0
-322 -432 0
-323 -433 0
-324 -434 0
-325 -435 0
-321 -456 0
-322 -457 0
-323 -458 0
-324 -459 0
-325 -460 0
-326 -406 0
-327 -407 0
-328 -408 0
-329 -409 0
-330 -410 0
-326 -421 0
-327 -422 0
-328 -423 0
-329 -424 0
-330 -425 0
-326 -426 0
-327 -427 0
-328 -428 0
-329 -429 0
-330 -430 0
-326 -451 0
-327 -452 0
-328 -453 0
-329 -454 0
-330 -455 0
-326 -481 0
-327 -482 0
-328 -483 0
-329 -484 0
-330 -485 0
-331 -401 0
-332 -402 0
-333 -403 0
-334 -404 0
-335 -405 0
-336 -411 0
-337 -412 0
-338 -413 0
-339 -414 0
-340 -415 0
-336 -476 0
-337 -477 0
-338 -478 0
-339 -479 0
-340 -480 0
-341 -436 0
-342 -437 0
-343 -438 0
-344 -439 0
-345 -440 0
-341 -461 0
-342 -462 0
-343 -463 0
-344 -464 0
-345 -465 0
-341 -466 0
-342 -467 0
-343 -468 0
-344 -469 0
-345 -470 0
-341 -491 0
-342 -492 0
-343 -493 0
-344 -494 0
-345 -495 0
-346 -381 0
-347 -382 0
-348 -383 0
-349 -384 0
-350 -385 0
-346 -461 0
-347 -462 0
-348 -463 0
-349 -464 0
-350 -465 0
-346 -486 0
-347 -487 0
-348 -488 0
-349 -489 0
-350 -490 0
-346 -491 0
-347 -492 0
-348 -493 0
-349 -494 0
-350 -495 0
-351 -396 0
-352 -397 0
-353 -398 0
-354 -399 0
-355 -400 0
-356 -421 0
-357 -422 0
-358 -423 0
-359 -424 0
-360 -425 0
-356 -456 0
-357 -457 0
-358 -458 0
-359 -459 0
-360 -460 0
-361 -451 0
-362 -452 0
-363 -453 0
-364 -454 0
-365 -455 0
-366 -471 0
-367 -472 0
-368 -473 0
-369 -474 0
-370 -475 0
-371 -406 0
-372 -407 0
-373 -408 0
-374 -409 0
-375 -410 0
-371 -446 0
-372 -447 0
-373 -448 0
-374 -449 0
-375 -450 0
-371 -471 0
-372 -472 0
-373 -473 0
-374 -474 0
-375 -475 0
-376 -411 0
-377 -412 0
-378 -413 0
-379 -414 0
-380 -415 0
-376 -421 0
-377 -422 0
-378 -423 0
-379 -424 0
-380 -425 0
-376 -426 0
-377 -427 0
-378 -428 0
-379 -429 0
-380 -430 0
-376 -476 0
-377 -477 0
-378 -478 0
-379 -479 0
-380 -480 0
-376 -486 0
-377 -487 0
-378 -488 0
-379 -489 0
-380 -490 0
-376 -496 0
-377 -497 0
-378 -498 0
-379 -499 0
-380 -500 0
-386 -466 0
-387 -467 0
-388 -468 0
-389 -469 0
-390 -470 0
-401 -426 0
-402 -427 0
-403 -428 0
-404 -429 0
-405 -430 0
-401 -451 0
-402 -452 0
-403 -453 0
-404 -454 0
-405 -455 0
-401 -461 0
-402 -462 0
-403 -463 0
-404 -464 0
-405 -465 0
-406 -431 0
-407 -432 0
-408 -433 0
-409 -434 0
-410 -435 0
-406 -456 0
-407 -457 0
-408 -458 0
-409 -459 0
-410 -460 0
-416 -451 0
-417 -452 0
-418 -453 0
-419 -454 0
-420 -455 0
-421 -456 0
-422 -457 0
-423 -458 0
-424 -459 0
-425 -460 0
-431 -461 0
-432 -462 0
-433 -463 0
-434 -464 0
-435 -465 0
-436 -466 0
-437 -467 0
-438 -468 0
-439 -469 0
-440 -470 0
